c Output_time 26.03.2020 18:15:19_+0100 1585242919053412330
c ** Program information **
c program_name                          "QBRG_debug"
c version                               "0.3.20"
c date                                  "25.3.2020"
c gid_id                                "673970833836058123f633335630c185360d632e"
c author                                "Oliver Kullmann"
c url                                   "https://github.com/OKullmann/oklibrary/blob/master/Satisfiability/Transformers/Generators/Random/QBRG.cpp"
c ** Machine information **
c machine_name                          "chyna-Lenovo-G50-70"
c bogomips                              3791.08
c ** Compilation information **
c compiler_version                      "g++ 7.5.0"
c compilation_date                      "Mar_26_2020 11:16:30"
c compilation_options                   "--std=c++17 -pedantic -fmax-errors=5 -Wall -Wextra -g -D_GLIBCXX_DEBUG"
c NDEBUG                                0
c OPTIMIZE                              0
c ** Parameters **
c command-line                          "./QBRG_debug" "a40 e40 a40 40" "407*1,1|2-2,1|3-3,1|4-4,1" "" "1,t" ""
c output                                "QuBlRaGe_160_407_1585242919053244554.qdimacs"
c options                               "filtered,renamed"
c num_quantifier_blocks                 4
c  quantifier_blocks                    1:a1-40 2:e41-80 3:a81-120 4:e121-160
c num_clause-blocks                     1
c  clause-blocks                        407 * {1-40,1,1/2} | {41-80,1,1/2} | {81-120,1,1/2} | {121-160,1,1/2}
c num_e-seeds                           37+2=39
c  e-seeds                              1 0 1 0 5 160 2 40 0 40 1 40 0 40 1 407 4 1 1 1 1 2 2 2 1 1 2 3 3 1 1 2 4 4 1 1 2 1 1585242919053243775
p cnf 160 407
a 1 2 3 4 5 6 7 8 9 10 11 12 13 14 15 16 17 18 19 20 21 22 23 24 25 26 27 28 29 30 31 32 33 34 35 36 37 38 39 40 0
e 41 42 43 44 45 46 47 48 49 50 51 52 53 54 55 56 57 58 59 60 61 62 63 64 65 66 67 68 69 70 71 72 73 74 75 76 77 78 79 80 0
a 81 82 83 84 85 86 87 88 89 90 91 92 93 94 95 96 97 98 99 100 101 102 103 104 105 106 107 108 109 110 111 112 113 114 115 116 117 118 119 120 0
e 121 122 123 124 125 126 127 128 129 130 131 132 133 134 135 136 137 138 139 140 141 142 143 144 145 146 147 148 149 150 151 152 153 154 155 156 157 158 159 160 0
-30 -51 -85 -121 0
32 45 88 -121 0
33 73 -86 121 0
-14 -78 -112 121 0
34 58 116 121 0
-12 69 -83 -122 0
-31 -45 -85 -122 0
31 75 85 -122 0
-5 -68 -89 -122 0
24 71 -97 -122 0
-28 -63 112 -122 0
14 -73 -114 -122 0
-6 -42 -115 -122 0
-4 -68 118 -122 0
37 -65 -87 122 0
-18 53 -89 122 0
-36 -54 -101 122 0
19 62 106 122 0
14 43 -83 -123 0
-34 65 -92 -123 0
-9 77 105 -123 0
8 68 113 -123 0
40 -74 118 -123 0
25 74 119 -123 0
25 -48 85 123 0
-21 -54 96 123 0
7 51 -101 123 0
30 74 101 123 0
5 78 -83 -124 0
-26 -53 96 -124 0
-36 -76 97 -124 0
-22 -44 100 -124 0
-40 -51 115 -124 0
26 58 -116 -124 0
14 44 83 124 0
10 -78 83 124 0
-6 -69 113 124 0
13 74 83 -125 0
35 61 -85 -125 0
-3 -44 92 -125 0
32 -44 98 -125 0
39 44 -103 -125 0
-30 77 106 -125 0
-3 55 86 125 0
29 79 -97 125 0
7 -48 100 125 0
12 -77 113 125 0
37 -49 114 125 0
36 45 82 -126 0
37 -43 87 -126 0
40 64 88 -126 0
15 65 93 -126 0
-34 45 97 -126 0
-1 -67 -115 -126 0
25 -54 -116 -126 0
-5 -42 -91 126 0
28 58 -93 126 0
-3 -49 -96 126 0
1 43 -102 126 0
38 -60 -103 126 0
-16 -57 -109 126 0
-35 55 117 126 0
22 52 -91 -127 0
25 49 -95 -127 0
23 68 -103 -127 0
31 59 -111 -127 0
12 60 117 -127 0
32 -64 -118 -127 0
37 -43 120 -127 0
33 44 -83 127 0
10 -61 89 127 0
23 47 90 127 0
-40 -78 119 127 0
-1 -46 -87 -128 0
9 61 91 -128 0
-12 -63 -93 -128 0
5 -79 117 -128 0
34 -61 -94 128 0
-7 -70 98 128 0
-4 69 -117 128 0
-11 62 83 -129 0
29 -66 91 -129 0
8 -45 101 -129 0
-11 64 -109 -129 0
-7 70 -120 -129 0
-9 68 -98 129 0
23 -65 -99 -130 0
-37 -60 112 -130 0
-11 -60 -114 -130 0
29 -55 120 -130 0
-33 57 -82 130 0
3 -80 99 130 0
-9 -79 -102 130 0
32 52 115 130 0
-7 -48 -116 130 0
-26 -47 -83 -131 0
1 -69 -96 -131 0
-21 -66 99 -131 0
19 55 -101 -131 0
28 69 107 -131 0
-19 -69 108 -131 0
35 -49 -86 131 0
-9 -62 91 131 0
-24 49 -94 131 0
-31 -60 105 131 0
-18 43 -108 131 0
-28 -64 81 -132 0
1 -63 83 -132 0
-29 -72 92 -132 0
26 -45 -93 -132 0
-3 46 -94 -132 0
-19 -71 -94 -132 0
-5 -78 -104 -132 0
-9 61 108 -132 0
13 67 -120 -132 0
10 -63 -85 132 0
-27 -80 95 132 0
-35 -52 105 132 0
-18 -75 -106 132 0
-22 53 -114 132 0
-37 57 118 132 0
37 51 -120 132 0
10 -51 -83 -133 0
-9 -79 88 -133 0
24 -71 -92 -133 0
21 78 104 -133 0
18 44 -107 -133 0
38 47 116 -133 0
-13 71 97 133 0
-25 67 -81 -134 0
-40 -66 85 -134 0
11 44 -95 -134 0
-3 -59 106 -134 0
6 -62 -109 -134 0
21 76 -113 -134 0
-29 -65 -114 -134 0
-7 -70 115 -134 0
-11 64 84 134 0
24 62 85 134 0
-15 -59 -90 134 0
40 -79 -92 134 0
-19 71 -101 134 0
21 56 103 134 0
-11 -53 111 134 0
-11 65 -114 134 0
-14 -67 119 134 0
-21 42 85 -135 0
19 42 88 -135 0
24 -66 100 -135 0
15 -62 -104 -135 0
-4 -73 -106 -135 0
-3 59 107 -135 0
-12 -69 108 -135 0
-27 -43 113 -135 0
-7 -45 118 -135 0
31 -43 -81 135 0
-1 -51 91 135 0
-31 71 -97 135 0
7 79 -97 135 0
-17 -60 -82 -136 0
16 71 -108 -136 0
11 68 112 -136 0
-37 -56 -88 136 0
22 70 94 136 0
-27 46 -110 136 0
-4 -75 120 136 0
-20 51 -85 -137 0
19 44 -86 -137 0
-1 -65 -91 -137 0
-22 -59 -96 -137 0
31 -41 104 -137 0
3 49 -107 -137 0
4 41 -112 -137 0
23 -43 89 137 0
30 66 -96 137 0
26 56 96 137 0
29 66 101 137 0
-16 43 -110 137 0
34 48 -83 -138 0
-21 75 92 -138 0
34 -50 100 -138 0
15 75 -113 -138 0
17 -80 115 -138 0
11 68 -116 -138 0
6 51 -117 -138 0
9 72 83 138 0
-14 -44 -91 138 0
-1 -42 -99 138 0
20 42 120 138 0
-30 66 -81 -139 0
28 -71 102 -139 0
8 -60 -104 -139 0
-28 65 -112 -139 0
12 79 116 -139 0
2 -66 120 -139 0
37 70 83 139 0
-11 -42 -94 139 0
-2 -66 -94 139 0
-16 -46 110 139 0
-26 -49 112 139 0
22 -68 100 -140 0
-23 -47 101 -140 0
38 77 -103 -140 0
-40 44 105 -140 0
-18 -59 107 -140 0
34 -41 113 -140 0
31 64 115 -140 0
-7 70 96 140 0
28 77 -105 140 0
-31 48 89 -141 0
37 42 -102 -141 0
-28 -56 85 141 0
-36 -77 85 141 0
10 -56 92 141 0
40 78 99 141 0
-16 46 -98 -142 0
30 -74 -98 -142 0
-20 -55 -103 -142 0
-38 60 103 -142 0
-10 -44 -105 -142 0
-36 44 -117 -142 0
12 76 -87 142 0
26 78 94 142 0
10 50 97 142 0
21 -73 101 142 0
-34 69 105 142 0
15 -80 108 142 0
40 69 111 142 0
29 -44 115 142 0
-28 -67 -92 -143 0
7 48 -97 -143 0
32 41 94 143 0
-19 -52 94 143 0
32 74 94 143 0
-20 52 -108 143 0
-5 -43 -114 143 0
-4 78 117 143 0
25 -55 89 -144 0
-2 -59 -91 -144 0
32 74 96 -144 0
-3 -65 -105 -144 0
27 41 107 -144 0
15 -63 111 -144 0
-38 80 -120 -144 0
-29 -76 88 144 0
17 -50 99 144 0
-40 65 104 144 0
-22 -54 107 144 0
-16 -67 115 144 0
-31 67 85 -145 0
-23 75 85 -145 0
29 -55 -91 -145 0
-24 78 93 -145 0
-30 71 -94 -145 0
9 -46 105 -145 0
-36 76 -107 -145 0
26 47 111 -145 0
-10 -78 111 -145 0
16 42 84 145 0
15 -73 -85 145 0
-11 64 -102 145 0
-2 57 -105 145 0
-16 62 106 145 0
16 -72 114 145 0
26 -74 -119 145 0
-26 80 -100 -146 0
-5 -61 116 -146 0
12 -43 -119 -146 0
-11 46 83 146 0
-25 -61 83 146 0
4 -68 -87 146 0
18 -76 -89 146 0
11 67 -93 146 0
-8 71 98 146 0
-3 67 100 146 0
16 67 102 146 0
-24 -54 106 146 0
28 54 -111 146 0
-33 -42 83 -147 0
-34 46 -97 -147 0
-26 63 -99 -147 0
-25 -63 -102 -147 0
34 42 90 147 0
27 -67 -95 147 0
-13 -76 -114 147 0
-32 -42 115 147 0
-5 54 -117 147 0
32 41 87 -148 0
11 -55 -81 148 0
-24 67 93 148 0
-25 52 -104 148 0
3 75 119 148 0
-29 -57 82 -149 0
32 -44 85 -149 0
39 72 -94 -149 0
-34 67 101 -149 0
-8 66 108 -149 0
32 64 -110 -149 0
-27 59 110 -149 0
-29 60 -112 -149 0
-10 68 -100 149 0
-40 72 -101 149 0
28 67 106 149 0
-6 55 85 -150 0
-40 65 -92 -150 0
-23 -47 -97 -150 0
-13 -42 -101 -150 0
30 -61 -101 -150 0
36 -49 110 -150 0
24 58 -119 -150 0
4 48 85 150 0
-17 67 -90 150 0
-18 -54 -87 -151 0
15 73 -87 -151 0
10 -76 87 -151 0
4 71 -93 -151 0
38 -79 93 -151 0
3 -66 -113 -151 0
-1 -56 113 -151 0
-19 -71 -82 151 0
-18 45 -85 151 0
-36 51 85 151 0
23 56 86 151 0
-11 -45 95 151 0
-16 -68 -102 151 0
22 -66 -113 151 0
-3 65 85 -152 0
14 -71 100 -152 0
32 72 102 -152 0
21 -41 106 -152 0
-12 59 108 -152 0
20 -56 -109 -152 0
-15 60 -84 152 0
-8 61 93 152 0
18 -71 -94 152 0
16 -73 98 152 0
3 54 -109 152 0
-4 -74 -111 152 0
17 80 114 152 0
-17 47 -99 -153 0
-35 -46 -103 -153 0
-29 -65 -87 153 0
-18 -77 -90 153 0
-4 -62 90 153 0
18 63 96 153 0
-18 68 105 153 0
2 48 89 -154 0
-2 75 93 -154 0
2 -63 94 -154 0
4 -67 96 -154 0
3 -78 -118 -154 0
23 -42 84 154 0
17 53 99 154 0
-29 -60 100 154 0
-26 79 106 154 0
38 41 -87 -155 0
25 -53 108 -155 0
9 -54 -81 155 0
2 67 -83 155 0
5 70 84 155 0
40 -67 -89 155 0
-13 68 94 155 0
-8 -76 97 155 0
20 50 100 155 0
-29 72 116 155 0
30 -52 118 155 0
18 -74 84 -156 0
26 42 -86 -156 0
-11 59 100 -156 0
-31 69 106 -156 0
22 -80 -111 -156 0
13 -45 84 156 0
-26 -63 88 156 0
17 -68 -103 156 0
-23 -50 -85 -157 0
15 -41 91 -157 0
16 45 101 -157 0
-22 56 111 -157 0
-2 -60 117 -157 0
-33 -71 -84 157 0
-39 -48 -97 157 0
7 -74 111 157 0
26 -42 -119 157 0
27 76 120 157 0
24 78 91 -158 0
14 -57 -96 -158 0
-13 68 100 -158 0
19 -72 -109 -158 0
-5 51 -118 -158 0
-12 59 120 -158 0
4 -68 81 158 0
-34 65 -88 158 0
-36 -79 -89 158 0
-7 -57 112 158 0
39 -60 120 158 0
-8 -45 84 -159 0
-23 57 -99 -159 0
9 59 -111 -159 0
-23 -46 118 159 0
28 64 -83 -160 0
21 77 86 -160 0
-21 -70 -88 -160 0
29 -67 -89 -160 0
-33 -48 -101 -160 0
30 -77 -118 -160 0
25 73 -90 160 0
21 64 96 160 0
